Traveling Salesman Problem/TSP_generados/Aleatorio1620390986_12.tsp
NAME: Aleatorio1620390986_12.tsp
COMMENT: Randomly generated scenario
TYPE: TSP
DIMENSION: 12
EDGE_WEIGHT_TYPE: ATT
NODE_COORD_SECTION
1 20.62 41.29
2 37.31 16.34
3 49.06 40.06
4 18.68 39.87
5 28.87 4.02
6 28.71 39.53
7 1.67 23.27
8 41.84 34.88
9 41.53 26.55
10 34.25 3.14
11 37.64 8.03
12 16.72 29.82
