Traveling Salesman Problem/TSP_generados/Aleatorio1620390986_12.opt.tour
NAME: Aleatorio1620390986_12.opt.tour
COMMENT: Optimal solution for Aleatorio1620390986_12 (139.00358183518472)
TYPE: TOUR
DIMENSION: 12
TOUR_SECTION
1 4 12 7 5 10 11 2 9 8 3 6
-1
EOF
